certificates/rado_a6_c248_N41.cnf
c Rad2 upper bound instance: x1 + 6*x2 - x3 = 248, interval [1,41]
p cnf 41 294
1 3 41 0
-1 -3 -41 0
2 4 41 0
-2 -4 -41 0
3 5 41 0
-3 -5 -41 0
4 6 41 0
-4 -6 -41 0
5 7 41 0
-5 -7 -41 0
6 8 41 0
-6 -8 -41 0
1 9 40 0
-1 -9 -40 0
7 9 41 0
-7 -9 -41 0
2 10 40 0
-2 -10 -40 0
8 10 41 0
-8 -10 -41 0
3 11 40 0
-3 -11 -40 0
9 11 41 0
-9 -11 -41 0
4 12 40 0
-4 -12 -40 0
10 12 41 0
-10 -12 -41 0
5 13 40 0
-5 -13 -40 0
11 13 41 0
-11 -13 -41 0
6 14 40 0
-6 -14 -40 0
12 14 41 0
-12 -14 -41 0
1 15 39 0
-1 -15 -39 0
7 15 40 0
-7 -15 -40 0
13 15 41 0
-13 -15 -41 0
2 16 39 0
-2 -16 -39 0
8 16 40 0
-8 -16 -40 0
14 16 41 0
-14 -16 -41 0
3 17 39 0
-3 -17 -39 0
9 17 40 0
-9 -17 -40 0
15 17 41 0
-15 -17 -41 0
4 18 39 0
-4 -18 -39 0
10 18 40 0
-10 -18 -40 0
16 18 41 0
-16 -18 -41 0
5 19 39 0
-5 -19 -39 0
11 19 40 0
-11 -19 -40 0
17 19 41 0
-17 -19 -41 0
6 20 39 0
-6 -20 -39 0
12 20 40 0
-12 -20 -40 0
18 20 41 0
-18 -20 -41 0
1 21 38 0
-1 -21 -38 0
7 21 39 0
-7 -21 -39 0
13 21 40 0
-13 -21 -40 0
19 21 41 0
-19 -21 -41 0
2 22 38 0
-2 -22 -38 0
8 22 39 0
-8 -22 -39 0
14 22 40 0
-14 -22 -40 0
20 22 41 0
-20 -22 -41 0
3 23 38 0
-3 -23 -38 0
9 23 39 0
-9 -23 -39 0
15 23 40 0
-15 -23 -40 0
21 23 41 0
-21 -23 -41 0
4 24 38 0
-4 -24 -38 0
10 24 39 0
-10 -24 -39 0
16 24 40 0
-16 -24 -40 0
22 24 41 0
-22 -24 -41 0
5 25 38 0
-5 -25 -38 0
11 25 39 0
-11 -25 -39 0
17 25 40 0
-17 -25 -40 0
23 25 41 0
-23 -25 -41 0
6 26 38 0
-6 -26 -38 0
12 26 39 0
-12 -26 -39 0
18 26 40 0
-18 -26 -40 0
24 26 41 0
-24 -26 -41 0
1 27 37 0
-1 -27 -37 0
7 27 38 0
-7 -27 -38 0
13 27 39 0
-13 -27 -39 0
19 27 40 0
-19 -27 -40 0
25 27 41 0
-25 -27 -41 0
2 28 37 0
-2 -28 -37 0
8 28 38 0
-8 -28 -38 0
14 28 39 0
-14 -28 -39 0
20 28 40 0
-20 -28 -40 0
26 28 41 0
-26 -28 -41 0
3 29 37 0
-3 -29 -37 0
9 29 38 0
-9 -29 -38 0
15 29 39 0
-15 -29 -39 0
21 29 40 0
-21 -29 -40 0
27 29 41 0
-27 -29 -41 0
4 30 37 0
-4 -30 -37 0
10 30 38 0
-10 -30 -38 0
16 30 39 0
-16 -30 -39 0
22 30 40 0
-22 -30 -40 0
28 30 41 0
-28 -30 -41 0
5 31 37 0
-5 -31 -37 0
11 31 38 0
-11 -31 -38 0
17 31 39 0
-17 -31 -39 0
23 31 40 0
-23 -31 -40 0
29 31 41 0
-29 -31 -41 0
6 32 37 0
-6 -32 -37 0
12 32 38 0
-12 -32 -38 0
18 32 39 0
-18 -32 -39 0
24 32 40 0
-24 -32 -40 0
30 32 41 0
-30 -32 -41 0
1 33 36 0
-1 -33 -36 0
7 33 37 0
-7 -33 -37 0
13 33 38 0
-13 -33 -38 0
19 33 39 0
-19 -33 -39 0
25 33 40 0
-25 -33 -40 0
31 33 41 0
-31 -33 -41 0
2 34 36 0
-2 -34 -36 0
8 34 37 0
-8 -34 -37 0
14 34 38 0
-14 -34 -38 0
20 34 39 0
-20 -34 -39 0
26 34 40 0
-26 -34 -40 0
32 34 41 0
-32 -34 -41 0
3 35 36 0
-3 -35 -36 0
9 35 37 0
-9 -35 -37 0
15 35 38 0
-15 -35 -38 0
21 35 39 0
-21 -35 -39 0
27 35 40 0
-27 -35 -40 0
33 35 41 0
-33 -35 -41 0
4 36 0
-4 -36 0
10 36 37 0
-10 -36 -37 0
16 36 38 0
-16 -36 -38 0
22 36 39 0
-22 -36 -39 0
28 36 40 0
-28 -36 -40 0
34 36 41 0
-34 -36 -41 0
5 36 37 0
-5 -36 -37 0
11 37 0
-11 -37 0
17 37 38 0
-17 -37 -38 0
23 37 39 0
-23 -37 -39 0
29 37 40 0
-29 -37 -40 0
35 37 41 0
-35 -37 -41 0
6 36 38 0
-6 -36 -38 0
12 37 38 0
-12 -37 -38 0
18 38 0
-18 -38 0
24 38 39 0
-24 -38 -39 0
30 38 40 0
-30 -38 -40 0
36 38 41 0
-36 -38 -41 0
1 35 39 0
-1 -35 -39 0
7 36 39 0
-7 -36 -39 0
13 37 39 0
-13 -37 -39 0
19 38 39 0
-19 -38 -39 0
25 39 0
-25 -39 0
31 39 40 0
-31 -39 -40 0
37 39 41 0
-37 -39 -41 0
2 35 40 0
-2 -35 -40 0
8 36 40 0
-8 -36 -40 0
14 37 40 0
-14 -37 -40 0
20 38 40 0
-20 -38 -40 0
26 39 40 0
-26 -39 -40 0
32 40 0
-32 -40 0
38 40 41 0
-38 -40 -41 0
3 35 41 0
-3 -35 -41 0
9 36 41 0
-9 -36 -41 0
15 37 41 0
-15 -37 -41 0
21 38 41 0
-21 -38 -41 0
27 39 41 0
-27 -39 -41 0
33 40 41 0
-33 -40 -41 0
39 41 0
-39 -41 0
