certificates/rado_a6_c248_N41.drat
-41 0
39 0
-25 0
23 0
27 0
-9 0
-37 0
-13 0
7 0
11 0
35 0
36 0
15 0
-40 0
-21 0
-38 0
0
